40584
1 1 1 1 1 1 0 1 1 1 1 1 1 0 1 1 1 1 0 1 1 0 1 1 1 1 1 1 1 1
19 20 1 15 9 3 8 3 24 25 9 4 0 14 3 2 7 16 16 5 16 16 4 19 17 8 7 0 3 16 11 5 7 3 2 16 7 24 24 10 1 12 12 1 3 22 12 5 22 19 17 14 24 4 17 4 5 5 14 15 17 27 22 25 15 24 5 14 24 10 15 3 2 8 5 15 16 11 3 14 5 25 11 23 20 5 15 2 24 15 19 29 0 8 29 17 20 29 11 3 29 9 19 11 27 7 1 11 11 9 25 1 29 19 7 17 20 8 11 2 0 10 10 22 28 15 16 20 8 2 23 12 12 27 16 26 5 23 22 1 2 17 19 11 27 19 11 8 11 9 8 11 5 22 4 25 0 24 12 17 23 8 19 17 26 0 2 5 19 23 2 14 24 20 23 23 2 14 27 4 26 4 28 22 28 15 29 4 28 29 16 8 26 20 8 10 4 1 27 8